c clasp version 2.1.1
c Reading from pb_300_07.cnf
c Solving...
s SATISFIABLE

c Models        : 1+    
c Time          : 59.923s (Solving: 58.44s 1st Model: 58.44s Unsat: 0.00s)
c CPU Time      : 59.820s
c Choices       : 1072080
c Conflicts     : 114187
c Restarts      : 331    (Average: 344.98 Last: 77)

c Variables     : 383542 (Eliminated: 120050 Frozen:    0)
c Constraints   : 467749 (Binary: 64.0% Ternary: 35.1% Other:  0.9%)
c Lemmas        : 114187 (Binary:  0.8% Ternary:  1.4% Other: 97.8%)
c   Conflict    : 114187 (Average Length: 82.4) 
c   Loop        : 0      (Average Length: 0.0) 
c   Other       : 0      (Average Length: 0.0)
c   Deleted     : 82583 
